NAME: Random_75_5
ELLAPSED_TIME_(ms): 590
TOUR_SIZE: 1516
TOUR_SECTION
0
1
72
35
45
56
54
44
42
60
58
25
41
33
66
65
62
48
37
53
21
74
71
43
27
36
64
6
26
30
31
40
15
38
51
73
20
17
39
5
49
18
69
52
55
19
50
61
67
12
13
3
4
11
2
63
57
68
46
7
22
28
14
32
16
34
9
23
70
8
24
29
47
10
59
0
EOF
